outputs/c204.txt.out
filename: C204
Vehicles: 25, Capacity: 700
Total customers : 101
No of routes: 14
Route #1: 93 5 75 2 1 99 100 97 94 95
Route #2: 7 98 92 3 4 89 91 88 86 84 83 82 87 96
Route #3: 74
Route #4: 62 63
Route #5: 67 66 69 68 57 40 44 46 45 51 50 52 47 42 41 43 48
Route #6: 55 54 56 58 60 59
Route #7: 65 53 49 64 61 72 81 78 77
Route #8: 10 90 85 76 71 70 73 79 80
Route #9: 11
Route #10: 9
Route #11: 25
Route #12: 28 26 23 18 19 17 13
Route #13: 8 15 16 14 12 21 22 24 20
Route #14: 27 30 34 36 39 38 37 35 31 33 32 6 29
Cost 1270
